
Gurobi 9.5.0 (win64) logging started Tue Dec  7 12:38:42 2021

Set parameter LogFile to value "../results/logs/log_2021_12_07_12_26.csv_5_20.log"
Set parameter Method to value 3
Gurobi Optimizer version 9.5.0 build v9.5.0rc5 (win64)
Thread count: 6 physical cores, 12 logical processors, using up to 12 threads
Optimize a model with 1783 rows, 9882 columns and 22585 nonzeros
Model fingerprint: 0x8c03ef2f
Variable types: 4941 continuous, 4941 integer (4941 binary)
Coefficient statistics:
  Matrix range     [1e+00, 5e+00]
  Objective range  [1e+00, 1e+00]
  Bounds range     [1e+00, 1e+00]
  RHS range        [1e+00, 2e+01]
Found heuristic solution: objective 12.0000000
Presolve removed 944 rows and 8566 columns
Presolve time: 0.04s
Presolved: 839 rows, 1316 columns, 4810 nonzeros
Variable types: 741 continuous, 575 integer (555 binary)
Found heuristic solution: objective 18.0000000

Concurrent LP optimizer: primal simplex, dual simplex, and barrier
Showing barrier log only...

Root barrier log...

Ordering time: 0.00s

Barrier statistics:
 AA' NZ     : 3.463e+03
 Factor NZ  : 9.369e+03 (roughly 1 MB of memory)
 Factor Ops : 1.271e+05 (less than 1 second per iteration)
 Threads    : 1

                  Objective                Residual
Iter       Primal          Dual         Primal    Dual     Compl     Time
   0   1.29190781e+03  1.81397102e+03  9.37e+02 8.41e-01  4.95e+00     0s
   1   3.80713182e+02  1.47552429e+03  1.72e+02 2.89e-15  1.02e+00     0s
   2   1.83770880e+02  3.84443274e+02  2.93e+01 1.78e-15  1.59e-01     0s
   3   1.21989859e+02  1.57577528e+02  7.40e+00 2.28e-15  4.02e-02     0s
   4   9.93713441e+01  1.11758661e+02  1.33e+00 1.53e-15  9.20e-03     0s

Barrier performed 4 iterations in 0.07 seconds (0.04 work units)
Barrier solve interrupted - model solved by another algorithm


Solved with primal simplex

Root relaxation: objective 9.457693e+01, 645 iterations, 0.01 seconds (0.01 work units)

    Nodes    |    Current Node    |     Objective Bounds      |     Work
 Expl Unexpl |  Obj  Depth IntInf | Incumbent    BestBd   Gap | It/Node Time

     0     0   94.57693    0  264   18.00000   94.57693   425%     -    0s
H    0     0                      38.0000000   94.57693   149%     -    0s
H    0     0                      39.0000000   94.57693   143%     -    0s
H    0     0                      45.0000000   62.08905  38.0%     -    0s
     0     0   62.08905    0   96   45.00000   62.08905  38.0%     -    0s
     0     0   61.58685    0   90   45.00000   61.58685  36.9%     -    0s
     0     0   61.37787    0   95   45.00000   61.37787  36.4%     -    0s
     0     0   58.05907    0   68   45.00000   58.05907  29.0%     -    0s
     0     0   57.64829    0   55   45.00000   57.64829  28.1%     -    0s
     0     0   57.63507    0   43   45.00000   57.63507  28.1%     -    0s
     0     0   55.86137    0   75   45.00000   55.86137  24.1%     -    0s
     0     0   55.64808    0   79   45.00000   55.64808  23.7%     -    0s
     0     0   55.59386    0   67   45.00000   55.59386  23.5%     -    0s
     0     0   55.57293    0   67   45.00000   55.57293  23.5%     -    0s
     0     0   55.17612    0   66   45.00000   55.17612  22.6%     -    0s
     0     0   55.05781    0   46   45.00000   55.05781  22.4%     -    0s
     0     0   55.03723    0   66   45.00000   55.03723  22.3%     -    0s
     0     0   54.82405    0   62   45.00000   54.82405  21.8%     -    0s
     0     0   54.82405    0   62   45.00000   54.82405  21.8%     -    0s
     0     2   54.82405    0   62   45.00000   54.82405  21.8%     -    0s
H   20    26                      50.0000000   54.43001  8.86%  59.4    0s
*   26    27               6      51.0000000   54.43001  6.73%  55.8    0s
*  538     8              14      52.0000000   53.27766  2.46%  24.8    1s

Cutting planes:
  Gomory: 106
  Lift-and-project: 10
  Implied bound: 15
  MIR: 313
  Inf proof: 1
  RLT: 61
  Relax-and-lift: 11

Explored 565 nodes (15519 simplex iterations) in 1.01 seconds (0.92 work units)
Thread count was 12 (of 12 available processors)

Solution count 8: 52 51 50 ... 12

Optimal solution found (tolerance 1.00e-04)
Best objective 5.200000000000e+01, best bound 5.200000000000e+01, gap 0.0000%
